NAME: instance_9
TYPE: TSP
COMMENT: 9-city problem
DIMENSION: 9
EDGE_WEIGHT_TYPE: EUC_2D
NODE_COORD_SECTION
0 907 138
1 993 351
2 402 819
3 931 717
4 772 194
5 722 297
6 582 890
7 421 377
8 394 88
EOF
